c Command line: hgen8 195 40
p cnf 195 301
147 177 4 92 0
22 18 192 104 0
167 91 49 189 0
69 112 173 168 0
144 97 41 126 0
133 109 73 153 0
169 103 7 110 0
6 68 65 14 0
33 96 36 101 0
53 58 25 122 0
166 95 132 32 0
61 157 156 114 0
66 148 74 29 0
180 116 87 174 0
81 190 76 134 0
86 20 155 107 0
24 38 164 71 0
70 130 191 15 0
142 67 99 44 0
181 195 51 54 0
143 27 21 19 0
60 175 102 136 0
45 64 26 77 0
105 93 62 1 0
120 52 80 56 0
145 152 127 79 0
140 2 100 185 0
159 75 172 129 0
176 78 16 187 0
35 124 113 161 0
13 30 119 135 0
165 31 141 11 0
108 117 121 171 0
40 83 186 5 0
163 59 115 37 0
98 137 160 82 0
170 193 94 125 0
43 183 28 178 0
23 10 188 47 0
55 85 48 12 0
-1 -2 0
-1 -4 0
-1 -5 0
-2 -4 0
-2 -5 0
-4 -5 0
-6 -7 0
-6 -10 0
-7 -10 0
-11 -12 0
-11 -13 0
-11 -14 0
-11 -15 0
-12 -13 0
-12 -14 0
-12 -15 0
-13 -14 0
-13 -15 0
-14 -15 0
-16 -18 0
-16 -19 0
-16 -20 0
-18 -19 0
-18 -20 0
-19 -20 0
-21 -22 0
-21 -23 0
-21 -24 0
-21 -25 0
-22 -23 0
-22 -24 0
-22 -25 0
-23 -24 0
-23 -25 0
-24 -25 0
-26 -27 0
-26 -28 0
-26 -29 0
-26 -30 0
-27 -28 0
-27 -29 0
-27 -30 0
-28 -29 0
-28 -30 0
-29 -30 0
-31 -32 0
-31 -33 0
-31 -35 0
-32 -33 0
-32 -35 0
-33 -35 0
-36 -37 0
-36 -38 0
-36 -40 0
-37 -38 0
-37 -40 0
-38 -40 0
-41 -43 0
-41 -44 0
-41 -45 0
-43 -44 0
-43 -45 0
-44 -45 0
-47 -48 0
-47 -49 0
-48 -49 0
-51 -52 0
-51 -53 0
-51 -54 0
-51 -55 0
-52 -53 0
-52 -54 0
-52 -55 0
-53 -54 0
-53 -55 0
-54 -55 0
-56 -58 0
-56 -59 0
-56 -60 0
-58 -59 0
-58 -60 0
-59 -60 0
-61 -62 0
-61 -64 0
-61 -65 0
-62 -64 0
-62 -65 0
-64 -65 0
-66 -67 0
-66 -68 0
-66 -69 0
-66 -70 0
-67 -68 0
-67 -69 0
-67 -70 0
-68 -69 0
-68 -70 0
-69 -70 0
-71 -73 0
-71 -74 0
-71 -75 0
-73 -74 0
-73 -75 0
-74 -75 0
-76 -77 0
-76 -78 0
-76 -79 0
-76 -80 0
-77 -78 0
-77 -79 0
-77 -80 0
-78 -79 0
-78 -80 0
-79 -80 0
-81 -82 0
-81 -83 0
-81 -85 0
-82 -83 0
-82 -85 0
-83 -85 0
-86 -87 0
-91 -92 0
-91 -93 0
-91 -94 0
-91 -95 0
-92 -93 0
-92 -94 0
-92 -95 0
-93 -94 0
-93 -95 0
-94 -95 0
-96 -97 0
-96 -98 0
-96 -99 0
-96 -100 0
-97 -98 0
-97 -99 0
-97 -100 0
-98 -99 0
-98 -100 0
-99 -100 0
-101 -102 0
-101 -103 0
-101 -104 0
-101 -105 0
-102 -103 0
-102 -104 0
-102 -105 0
-103 -104 0
-103 -105 0
-104 -105 0
-107 -108 0
-107 -109 0
-107 -110 0
-108 -109 0
-108 -110 0
-109 -110 0
-112 -113 0
-112 -114 0
-112 -115 0
-113 -114 0
-113 -115 0
-114 -115 0
-116 -117 0
-116 -119 0
-116 -120 0
-117 -119 0
-117 -120 0
-119 -120 0
-121 -122 0
-121 -124 0
-121 -125 0
-122 -124 0
-122 -125 0
-124 -125 0
-126 -127 0
-126 -129 0
-126 -130 0
-127 -129 0
-127 -130 0
-129 -130 0
-132 -133 0
-132 -134 0
-132 -135 0
-133 -134 0
-133 -135 0
-134 -135 0
-136 -137 0
-136 -140 0
-137 -140 0
-141 -142 0
-141 -143 0
-141 -144 0
-141 -145 0
-142 -143 0
-142 -144 0
-142 -145 0
-143 -144 0
-143 -145 0
-144 -145 0
-147 -148 0
-152 -153 0
-152 -155 0
-153 -155 0
-156 -157 0
-156 -159 0
-156 -160 0
-157 -159 0
-157 -160 0
-159 -160 0
-161 -163 0
-161 -164 0
-161 -165 0
-163 -164 0
-163 -165 0
-164 -165 0
-166 -167 0
-166 -168 0
-166 -169 0
-166 -170 0
-167 -168 0
-167 -169 0
-167 -170 0
-168 -169 0
-168 -170 0
-169 -170 0
-171 -172 0
-171 -173 0
-171 -174 0
-171 -175 0
-172 -173 0
-172 -174 0
-172 -175 0
-173 -174 0
-173 -175 0
-174 -175 0
-176 -177 0
-176 -178 0
-176 -180 0
-177 -178 0
-177 -180 0
-178 -180 0
-181 -183 0
-181 -185 0
-183 -185 0
-186 -187 0
-186 -188 0
-186 -189 0
-186 -190 0
-187 -188 0
-187 -189 0
-187 -190 0
-188 -189 0
-188 -190 0
-189 -190 0
-191 -192 0
-191 -193 0
-191 -195 0
-192 -193 0
-192 -195 0
-193 -195 0
